
Gurobi 6.5.2 (win64) logging started 07/23/16 03:23:07


Gurobi 6.5.2 (win64) logging started 07/23/16 03:23:07

Optimize a model with 28465 rows, 1593 columns and 61276 nonzeros
Coefficient statistics:
  Matrix range    [4e-06, 1e+03]
  Objective range [1e+00, 1e+00]
  Bounds range    [1e+00, 1e+00]
  RHS range       [1e+00, 1e+03]
Found heuristic solution: objective 2924.96
Presolve removed 28437 rows and 1565 columns
Presolve time: 0.01s
Presolved: 28 rows, 28 columns, 85 nonzeros
Found heuristic solution: objective 297.8048202
Variable types: 28 continuous, 0 integer (0 binary)

Root relaxation: objective 2.211341e+02, 20 iterations, 0.00 seconds

    Nodes    |    Current Node    |     Objective Bounds      |     Work
 Expl Unexpl |  Obj  Depth IntInf | Incumbent    BestBd   Gap | It/Node Time

*    0     0               0     221.1341176  221.13412  0.00%     -    0s

Explored 0 nodes (20 simplex iterations) in 0.02 seconds
Thread count was 8 (of 8 available processors)

Optimal solution found (tolerance 1.00e-04)
Best objective 2.211341176126e+02, best bound 2.211341176126e+02, gap 0.0%

Wrote requested result file 'H2\instance24\\Results24EC_Sol5.lp'

